# Solution for model obj
# Objective value = 13
x#1 0
x#2 0
x#3 0
x#4 0
x#5 0
x#6 0
x#7 1
x#8 0
x#9 0
x#10 0
x#11 0
x#12 0
x#13 0
x#14 0
x#15 0
x#16 0
x#17 0
x#18 1
x#19 0
x#20 1
x#21 0
x#22 0
x#23 0
x#24 0
x#25 0
x#26 0
x#27 0
x#28 0
x#29 0
x#30 1
x#31 0
x#32 0
x#33 0
x#34 0
x#35 1
x#36 0
x#37 0
x#38 1
x#39 1
x#40 1
x#41 0
x#42 1
x#43 0
x#44 1
x#45 0
x#46 1
x#47 0
x#48 0
x#49 1
x#50 0
x#51 1
x#52 0
